--- Job main.gms Start 08/16/25 19:00:47 49.6.1 55d34574 WEX-WEI x86 64bit/MS Windows
--- Applying:
    C:\GAMS\49\gmsprmNT.txt
    C:\Users\prd705\OneDrive - University of Copenhagen\Documents\GAMS\gamsconfig.yaml
--- GAMS Parameters defined
    Input C:\Users\prd705\GAMS_GPT5\toy_model\main.gms
    ScrDir C:\Users\prd705\GAMS_GPT5\toy_model\225a\
    SysDir C:\GAMS\49\
    LogOption 2
Licensee: Medium MUD - 10 User License                   S241216|0002AP-WIN
          University of Copenhagen, Institute of Food and Resource EcDC2546
          C:\Users\prd705\OneDrive - University of Copenhagen\Documents\GAMS\gamslice.txt
          License Admin: Jesper Levring Andersen, jla@ifro.ku.dk           
          The maintenance period of the license will expire on Dec 11, 2025
System information: 24 physical cores and 64 Gb memory detected
GAMS 49.6.1   Copyright (C) 1987-2025 GAMS Development. All rights reserved
--- Starting compilation
--- main.gms(40) 3 Mb
--- . new_constraint.inc(3) 3 Mb
--- main.gms(46) 3 Mb
--- Starting execution: elapsed 0:00:00.020
--- Generating LP model toy
--- main.gms(46) 4 Mb
---   3 rows  3 columns  6 non-zeroes
--- Range statistics (absolute non-zero finite values)
--- RHS       [min, max] : [ 3.000E+00, 1.000E+01] - Zero values observed as well
--- Bound     [min, max] : [        NA,        NA] - Zero values observed as well
--- Matrix    [min, max] : [ 1.000E+00, 5.000E+00]
--- Executing CPLEX (Solvelink=2): elapsed 0:00:00.030

IBM ILOG CPLEX   49.6.1 55d34574 May 28, 2025          WEI x86 64bit/MS Window

--- GAMS/CPLEX licensed for continuous and discrete problems.
--- GMO setup time: 0.00s
--- GMO memory 0.50 Mb (peak 0.50 Mb)
--- Dictionary memory 0.00 Mb
--- Cplex 22.1.2.0 link memory 0.00 Mb (peak 0.00 Mb)
--- Starting Cplex

Version identifier: 22.1.2.0 | 2024-11-25 | 0edbb82fd
CPXPARAM_Advance                                 0
CPXPARAM_Simplex_Display                         2
CPXPARAM_MIP_Display                             4
CPXPARAM_MIP_Pool_Capacity                       0
CPXPARAM_MIP_Tolerances_AbsMIPGap                0
Tried aggregator 1 time.
LP Presolve eliminated 2 rows and 3 columns.
All rows and columns eliminated.
Presolve time = 0.00 sec. (0.00 ticks)

--- LP status (1): optimal.
--- Cplex Time: 0.00sec (det. 0.00 ticks)


Optimal solution found
Objective:           15.000000

--- Reading solution for model toy
--- Executing after solve: elapsed 0:00:00.191
--- main.gms(49) 4 Mb
--- GDX File (execute_unload) C:\Users\prd705\GAMS_GPT5\toy_model\results.gdx
*** Status: Normal completion
--- Job main.gms Stop 08/16/25 19:00:48 elapsed 0:00:00.192
